N = 9;
Capacity = 15;
Demand = [1, 8, 9, 2, 7, 2, 9, 5, 10];
Distance = [|
  0, 28, 28, 24, 11, 39, 35, 20, 12, 28
| 28, 0, 41, 5, 20, 67, 52, 48, 39, 52
| 28, 41, 0, 37, 25, 43, 11, 34, 24, 20
| 24, 5, 37, 0, 15, 63, 48, 44, 35, 47
| 11, 20, 25, 15, 0, 48, 35, 30, 20, 33
| 39, 67, 43, 63, 48, 0, 38, 19, 28, 23
| 35, 52, 11, 48, 35, 38, 0, 34, 28, 16
| 20, 48, 34, 44, 30, 19, 34, 0, 11, 19
| 12, 39, 24, 35, 20, 28, 28, 11, 0, 17
| 28, 52, 20, 47, 33, 23, 16, 19, 17, 0
|];
